data/solutions/planning/wellformed/moderate/sequential/wellformed_moderate_instance42_cplex.sol
Elapsed time: 0.14
Nodes explored: -
Nodes left: -
Relative gap: -
Upper bound: 152024.0
Lower bound: -
C[0]=10135.0
C[1]=10135.0
C[2]=10135.0
C[3]=10134.0
y[0]=0
y[1]=3
y[2]=3
y[3]=1
y[4]=0
y[5]=0
y[6]=1
y[7]=2
y[8]=2
y[9]=0
y[10]=2
y[11]=2
y[12]=2
y[13]=0
y[14]=3
y[15]=2
y[16]=3
y[17]=1
y[18]=3
y[19]=0
y[20]=0
y[21]=2
y[22]=2
y[23]=1
y[24]=1
y[25]=0
y[26]=2
y[27]=1
y[28]=0
y[29]=2
y[30]=3
y[31]=2
y[32]=0
y[33]=0
y[34]=1
y[35]=1
y[36]=0
y[37]=0
y[38]=3
y[39]=3
